0 472516 
1 471784 
2 468944 
3 468876 
4 467324 
5 464634 
6 464084 
7 460924 
8 460732 
9 458280 
10 457134 
11 452618 
12 450950 
13 449214 
14 446966 
15 443004 
16 440032 
17 437536 
18 437504 
19 436766 
20 436408 
21 436118 
22 433862 
23 429220 
24 428414 
25 426790 
26 425686 
27 425108 
28 421946 
29 421002 
30 419964 
31 419304 
32 416940 
33 415982 
34 415490 
35 412844 
36 410996 
37 409296 
38 404860 
39 402356 
40 401172 
41 398810 
42 395356 
43 387910 
44 386006 
45 381850 
46 381772 
47 380336 
48 374950 
49 373654 
50 373386 
51 372610 
52 371662 
53 371556 
54 366392 
55 359748 
56 359748 

